proyfinal/src/viki/013/experimentInOfficeAgust.take6.output/c1100897-0dc5-4a1e-9858-a4c55876e100.als.dat
{'cnf.clauses': '118081',
 'cnf.totvars': '69608',
 'conflict literals': '17',
 'conflicts': '11',
 'decisions': '3384',
 'memused.mb': '14.79',
 'outcome': 'UNSAT',
 'propagations': '25508',
 'restarts': '1',
 'solver.msecs': 36,
 'task.msecs': 84}
