proyfinal/src/viki/013/experimentInOfficeAgust.take6.output/c1100897-0dc5-4a1e-9858-a4c55876e100.als.out
Reading from standard input... Use '--help' for help.
============================[ Problem Statistics ]=============================
|                                                                             |
|  Number of variables:         69608                                         |
|  Number of clauses:          118081                                         |
|  Parse time:                   0.03 s                                       |
|                                                                             |
============================[ Search Statistics ]==============================
| Conflicts |          ORIGINAL         |          LEARNT          | Progress |
|           |    Vars  Clauses Literals |    Limit  Clauses Lit/Cl |          |
===============================================================================
===============================================================================
restarts              : 1
conflicts             : 11             (300 /sec)
decisions             : 3384           (0.00 % random) (92363 /sec)
propagations          : 25508          (696217 /sec)
conflict literals     : 17             (0.00 % deleted)
Memory used           : 14.79 MB
CPU time              : 0.036638 s

UNSATISFIABLE
